************************************************************************
file with basedata            : j60_20.bas
initial value random generator: 174466558
************************************************************************
projects                      :  1
jobs (incl. supersource/sink ):  62
horizon                       :  332
RESOURCES
  - renewable                 :  4   R
  - nonrenewable              :  0   N
  - doubly constrained        :  0   D
************************************************************************
PROJECT INFORMATION:
pronr.  #jobs rel.date duedate tardcost  MPM-Time
    1     60      0       58       46       58
************************************************************************
PRECEDENCE RELATIONS:
jobnr.    #modes  #successors   successors
   1        1          3           2   3   4
   2        1          3           7  10  20
   3        1          3           5   8  13
   4        1          1          46
   5        1          3           6  36  50
   6        1          1          27
   7        1          3          11  24  30
   8        1          3           9  17  42
   9        1          1          18
  10        1          3          12  16  22
  11        1          2          14  34
  12        1          3          15  28  34
  13        1          3          19  38  49
  14        1          2          41  52
  15        1          1          40
  16        1          2          26  60
  17        1          2          23  44
  18        1          3          29  35  53
  19        1          3          21  32  33
  20        1          1          44
  21        1          2          42  47
  22        1          1          25
  23        1          2          28  37
  24        1          2          37  45
  25        1          1          57
  26        1          2          55  59
  27        1          1          56
  28        1          1          31
  29        1          1          56
  30        1          1          44
  31        1          1          50
  32        1          1          47
  33        1          1          48
  34        1          1          43
  35        1          2          36  58
  36        1          1          57
  37        1          1          54
  38        1          2          39  46
  39        1          1          53
  40        1          1          43
  41        1          1          57
  42        1          1          54
  43        1          1          59
  44        1          1          61
  45        1          1          46
  46        1          1          51
  47        1          1          59
  48        1          1          56
  49        1          1          51
  50        1          1          60
  51        1          1          55
  52        1          1          54
  53        1          1          60
  54        1          1          55
  55        1          1          58
  56        1          1          58
  57        1          1          61
  58        1          1          61
  59        1          1          62
  60        1          1          62
  61        1          1          62
  62        1          0        
************************************************************************
REQUESTS/DURATIONS:
jobnr. mode duration  R 1  R 2  R 3  R 4
------------------------------------------------------------------------
  1      1     0       0    0    0    0
  2      1     5       0    0    3    0
  3      1     4       0    0    5    0
  4      1     7       0    2    0    0
  5      1     2       0    0    0    8
  6      1     6       0    0    2    0
  7      1     1       0    0    4    0
  8      1     2       6    0    0    0
  9      1     3       0    0    0    6
 10      1     7       0    0    6    0
 11      1     2       0    9    0    0
 12      1     6       0    0    4    0
 13      1     6       0    0    6    0
 14      1     5       7    0    0    0
 15      1     4       0    1    0    0
 16      1     7       0    0    6    0
 17      1    10       0    6    0    0
 18      1     4       0    8    0    0
 19      1     5       0    0    0    8
 20      1     5       4    0    0    0
 21      1     9       0    0    8    0
 22      1     6      10    0    0    0
 23      1     9       0    0    0    2
 24      1     7       0    0    6    0
 25      1     2       0    6    0    0
 26      1     2       1    0    0    0
 27      1     6       6    0    0    0
 28      1     8       0    0    0    6
 29      1     9       0    9    0    0
 30      1     2       0    8    0    0
 31      1    10       0    0    7    0
 32      1     9       0    0    7    0
 33      1     4       9    0    0    0
 34      1     4       0    0    1    0
 35      1     8       0    0    0    3
 36      1     5       0    8    0    0
 37      1     3       2    0    0    0
 38      1     3       4    0    0    0
 39      1     6       0    0    0    6
 40      1     8       0    0    0    3
 41      1     3       4    0    0    0
 42      1     6       4    0    0    0
 43      1     7       7    0    0    0
 44      1     6       5    0    0    0
 45      1     2       0    0    0    6
 46      1    10       1    0    0    0
 47      1     8       0    0    0    1
 48      1     8       6    0    0    0
 49      1     8       0    0    9    0
 50      1     8       0    7    0    0
 51      1     3       6    0    0    0
 52      1     8       0    0    1    0
 53      1     7       0    0    4    0
 54      1     2       2    0    0    0
 55      1     5       9    0    0    0
 56      1     9       0    0    0    4
 57      1     6       0    7    0    0
 58      1     5       0    0    6    0
 59      1     1       0    0    0    2
 60      1     7       7    0    0    0
 61      1     2       0    0    2    0
 62      1     0       0    0    0    0
************************************************************************
RESOURCEAVAILABILITIES:
  R 1  R 2  R 3  R 4
   31   25   35   23
************************************************************************
